1 1 -2 0
1 1 -3 0
1 -1 4 0
1 -1 5 0
1 2 3 0
1 2 4 0
1 -2 1 0
1 2 -6 0
1 7 -8 0
1 7 -9 0
1 -7 10 0
1 -7 -3 0
1 7 4 0
1 7 11 0
1 -7 12 0
1 7 -5 0
1 7 6 0
1 10 -9 0
1 10 -3 0
1 -10 -4 0
1 10 11 0
1 -10 12 0
1 -10 7 0
1 -10 -5 0
1 -10 -6 0
1 4 -10 0
1 -4 -2 0
1 -4 -13 0
1 4 -14 0
1 -4 15 0
1 4 7 0
1 4 -1 0
1 4 6 0
1 6 16 0
1 -6 -17 0
1 -6 -18 0
1 6 2 0
1 -6 -4 0
1 6 -13 0
1 6 14 0
1 -6 15 0
1 6 -7 0
1 6 1 0
1 3 -17 0
1 3 19 0
1 3 20 0
1 3 10 0
1 -3 -21 0
1 3 13 0
1 -3 22 0
1 -3 -1 0
1 3 -5 0
1 5 -19 0
1 -5 -20 0
1 -5 10 0
1 -5 -2 0
1 -5 3 0
1 -5 13 0
1 -5 22 0
1 -5 -23 0
1 5 -7 0
1 -5 1 0
1 -5 -24 0
1 -15 -9 0
1 -15 -18 0
1 15 4 0
1 15 11 0
1 15 -12 0
1 -15 -23 0
1 -15 -6 0
1 18 9 0
1 18 20 0
1 18 4 0
1 18 11 0
1 18 12 0
1 -14 -8 0
1 14 -25 0
1 14 26 0
1 14 27 0
1 -14 11 0
1 -14 12 0
1 14 28 0
1 -14 22 0
1 -14 29 0
1 -25 8 0
1 -25 -26 0
1 -25 19 0
1 -25 27 0
1 25 4 0
1 25 11 0
1 25 -12 0
1 -25 28 0
1 -25 6 0
1 12 30 0
1 -12 -25 0
1 -12 18 0
1 12 -10 0
1 -12 -31 0
1 -12 32 0
1 12 -14 0
1 12 -7 0
1 12 33 0
1 9 30 0
1 -9 25 0
1 9 -10 0
1 9 -31 0
1 -9 -34 0
1 -9 -32 0
1 9 12 0
1 -9 15 0
1 9 -7 0
1 9 -33 0
1 -11 -8 0
1 11 -35 0
1 -11 -17 0
1 -11 25 0
1 -11 -10 0
1 -11 -36 0
1 11 -13 0
1 -11 14 0
1 11 7 0
1 11 33 0
1 -8 -18 0
1 8 10 0
1 -8 -31 0
1 8 36 0
1 -8 13 0
1 8 14 0
1 8 -7 0
1 -8 33 0
1 32 -30 0
1 -32 26 0
1 -32 27 0
1 32 -12 0
1 -32 13 0
1 -32 28 0
1 32 29 0
1 30 -17 0
1 -30 27 0
1 -30 32 0
1 -30 -12 0
1 -30 -28 0
1 -34 37 0
1 -34 9 0
1 -34 -26 0
1 -34 -36 0
1 -34 -12 0
1 -34 28 0
1 -34 -29 0
1 -37 -35 0
1 37 -9 0
1 -37 -26 0
1 37 -27 0
1 37 34 0
1 -37 -12 0
1 -37 -28 0
1 37 -29 0
1 -29 -37 0
1 29 -30 0
1 29 -34 0
1 -29 32 0
1 29 -14 0
1 27 37 0
1 -27 -30 0
1 27 -25 0
1 -27 -32 0
1 27 14 0
1 -27 29 0
1 -28 -30 0
1 28 -25 0
1 -28 -26 0
1 -28 -38 0
1 28 -31 0
1 -28 34 0
1 -28 32 0
1 -28 14 0
1 -28 -33 0
1 -26 37 0
1 26 -30 0
1 -26 25 0
1 26 38 0
1 -26 -34 0
1 -26 -14 0
1 -26 -33 0
1 -23 39 0
1 23 20 0
1 23 40 0
1 -23 -3 0
1 23 41 0
1 23 42 0
1 23 15 0
1 23 5 0
1 -20 39 0
1 -20 -40 0
1 -20 3 0
1 20 42 0
1 -20 -23 0
1 -20 5 0
1 -22 19 0
1 22 43 0
1 22 3 0
1 22 -41 0
1 22 -14 0
1 22 -42 0
1 -22 -44 0
1 -22 -45 0
1 -22 5 0
1 19 42 0
1 -19 25 0
1 -19 -39 0
1 19 -40 0
1 -19 46 0
1 19 -43 0
1 19 -3 0
1 19 41 0
1 19 44 0
1 19 45 0
1 -19 5 0
1 -40 42 0
1 40 35 0
1 -40 17 0
1 40 -36 0
1 40 -13 0
1 -40 22 0
1 -40 23 0
1 42 -17 0
1 42 -19 0
1 -42 -20 0
1 42 -40 0
1 -42 -13 0
1 42 22 0
1 39 19 0
1 41 -19 0
1 41 39 0
1 41 20 0
1 41 22 0
1 41 23 0
1 -13 8 0
1 13 17 0
1 -13 40 0
1 13 -46 0
1 13 43 0
1 13 3 0
1 13 -4 0
1 -13 11 0
1 13 32 0
1 -13 -42 0
1 -13 -44 0
1 13 45 0
1 13 5 0
1 13 -6 0
1 -17 -8 0
1 17 30 0
1 17 40 0
1 17 -46 0
1 -17 3 0
1 17 -4 0
1 -17 13 0
1 -17 42 0
1 17 44 0
1 -17 45 0
1 -17 -5 0
1 -17 -6 0
1 -36 -16 0
1 36 -8 0
1 36 35 0
1 -36 40 0
1 -36 46 0
1 36 43 0
1 -36 -47 0
1 36 -34 0
1 36 -42 0
1 36 -44 0
1 36 -45 0
1 35 -16 0
1 -35 37 0
1 -35 8 0
1 -35 -40 0
1 -35 46 0
1 35 43 0
1 35 -21 0
1 -35 11 0
1 -35 -36 0
1 -35 -42 0
1 -35 -44 0
1 35 -45 0
1 -35 -24 0
1 43 -35 0
1 -43 -17 0
1 -43 19 0
1 -43 -38 0
1 -43 -31 0
1 43 -13 0
1 43 -22 0
1 -43 -45 0
1 -43 -48 0
1 -43 33 0
1 45 35 0
1 -45 -17 0
1 45 19 0
1 -45 43 0
1 45 -38 0
1 45 -31 0
1 45 -22 0
1 -45 -48 0
1 -45 -33 0
1 46 35 0
1 -46 -17 0
1 46 19 0
1 -46 22 0
1 46 44 0
1 44 35 0
1 -44 17 0
1 -44 19 0
1 -44 46 0
1 -44 -36 0
1 44 13 0
1 31 16 0
1 -31 8 0
1 -31 9 0
1 -31 -26 0
1 31 43 0
1 -31 -21 0
1 31 -11 0
1 31 47 0
1 -31 -28 0
1 31 45 0
1 31 24 0
1 31 33 0
1 -33 8 0
1 -33 16 0
1 33 9 0
1 -33 26 0
1 33 11 0
1 33 12 0
1 -33 28 0
1 -33 45 0
1 -33 24 0
1 -38 -16 0
1 -38 -43 0
1 -38 -47 0
1 -38 -28 0
1 -38 45 0
1 38 48 0
1 -38 24 0
1 48 -38 0
1 -48 21 0
1 48 47 0
1 -48 28 0
1 -47 31 0
1 47 -4 0
1 -47 36 0
1 -47 -48 0
1 47 33 0
1 16 35 0
1 16 -38 0
1 -16 31 0
1 -16 47 0
1 16 36 0
1 -16 -6 0
1 16 48 0
1 -16 -33 0
1 -21 35 0
1 -21 3 0
1 -21 31 0
1 21 -36 0
1 -21 24 0
1 24 35 0
1 -24 21 0
1 -24 -31 0
1 24 -36 0
1 24 5 0
1 -24 -48 0
1 -24 33 0
